nK = 1343;
nT = 6;
nI = 14;
L = 29;
TT = 318;
np = 1;
nc = 3;
b = [47, 34, 36, 57, 27, 56, 29, 29, 28, 69, 34, 54, 27, 38];
d = [76, 69, 89, 117, 110, 99, 45, 126, 43, 127, 97, 101, 143, 89];
m = [2.3, 2.2, 1.8, 2, 2.2, 2, 2.3, 1.9, 1.2, 1.7, 1.4, 2.3, 1.5, 1.8];
pt = [0.23, 0.28, 0.23, 0.32, 0.26, 0.32];
st = [10.35, 16.24, 9.2, 16.96, 15.34, 15.68];
arc = {<1, 0, 1, 1, 0, 0, 0, [1, 1, 1, 1, 1, 1]>, <2, 1, 2, 1, 0, 0, 0, [1, 1, 1, 1, 1, 1]>, <3, 2, 3, 1, 0, 0, 0, [1, 1, 1, 1, 1, 1]>, <4, 3, 4, 1, 0, 0, 0, [1, 1, 1, 1, 1, 1]>, <5, 4, 5, 1, 0, 0, 0, [1, 1, 1, 1, 1, 1]>, <6, 5, 6, 1, 0, 0, 0, [1, 1, 1, 1, 1, 1]>, <7, 6, 7, 1, 0, 0, 0, [1, 1, 1, 1, 1, 1]>, <8, 7, 8, 1, 0, 0, 0, [1, 1, 1, 1, 1, 1]>, <9, 8, 9, 1, 0, 0, 0, [1, 1, 1, 1, 1, 1]>, <10, 9, 10, 1, 0, 0, 0, [1, 1, 1, 1, 1, 1]>, <11, 10, 11, 1, 0, 0, 0, [1, 1, 1, 1, 1, 1]>, <12, 11, 12, 1, 0, 0, 0, [1, 1, 1, 1, 1, 1]>, <13, 12, 13, 1, 0, 0, 0, [1, 1, 1, 1, 1, 1]>, <14, 13, 14, 1, 0, 0, 0, [1, 1, 1, 1, 1, 1]>, <15, 14, 15, 1, 0, 0, 0, [1, 1, 1, 1, 1, 1]>, <16, 15, 16, 1, 0, 0, 0, [1, 1, 1, 1, 1, 1]>, <17, 16, 17, 1, 0, 0, 0, [1, 1, 1, 1, 1, 1]>, <18, 17, 18, 1, 0, 0, 0, [1, 1, 1, 1, 1, 1]>, <19, 18, 19, 1, 0, 0, 0, [1, 1, 1, 1, 1, 1]>, <20, 19, 20, 1, 0, 0, 0, [1, 1, 1, 1, 1, 1]>, <21, 20, 21, 1, 0, 0, 0, [1, 1, 1, 1, 1, 1]>, <22, 21, 22, 1, 0, 0, 0, [1, 1, 1, 1, 1, 1]>, <23, 22, 23, 1, 0, 0, 0, [1, 1, 1, 1, 1, 1]>, <24, 23, 24, 1, 0, 0, 0, [1, 1, 1, 1, 1, 1]>, <25, 24, 25, 1, 0, 0, 0, [1, 1, 1, 1, 1, 1]>, <26, 25, 26, 1, 0, 0, 0, [1, 1, 1, 1, 1, 1]>, <27, 26, 27, 1, 0, 0, 0, [1, 1, 1, 1, 1, 1]>, <28, 27, 28, 1, 0, 0, 0, [1, 1, 1, 1, 1, 1]>, <29, 28, 29, 1, 0, 0, 0, [1, 1, 1, 1, 1, 1]>, <30, 0, 12, 12, 1, 0, 1, [1, 1, 1, 1, 0, 0]>, <31, 1, 13, 12, 1, 0, 1, [1, 1, 1, 1, 0, 0]>, <32, 2, 14, 12, 1, 0, 1, [1, 1, 1, 1, 0, 0]>, <33, 3, 15, 12, 1, 0, 1, [1, 1, 1, 1, 0, 0]>, <34, 4, 16, 12, 1, 0, 1, [1, 1, 1, 1, 0, 0]>, <35, 5, 17, 12, 1, 0, 1, [1, 1, 1, 1, 0, 0]>, <36, 8, 20, 12, 1, 0, 1, [1, 1, 1, 1, 0, 0]>, <37, 9, 21, 12, 1, 0, 1, [1, 1, 1, 1, 0, 0]>, <38, 10, 22, 12, 1, 0, 1, [1, 1, 1, 1, 0, 0]>, <39, 11, 23, 12, 1, 0, 1, [1, 1, 1, 1, 0, 0]>, <40, 12, 24, 12, 1, 0, 1, [1, 1, 1, 1, 0, 0]>, <41, 13, 25, 12, 1, 0, 1, [1, 1, 1, 1, 0, 0]>, <42, 14, 26, 12, 1, 0, 1, [1, 1, 1, 1, 0, 0]>, <43, 15, 27, 12, 1, 0, 1, [1, 1, 1, 1, 0, 0]>, <44, 16, 28, 12, 1, 0, 1, [1, 1, 1, 1, 0, 0]>, <45, 17, 29, 12, 1, 0, 1, [1, 1, 1, 1, 0, 0]>, <46, 1, 12, 11, 2, 0, 1, [0, 0, 1, 1, 1, 1]>, <47, 2, 13, 11, 2, 0, 1, [0, 0, 1, 1, 1, 1]>, <48, 3, 14, 11, 2, 0, 1, [0, 0, 1, 1, 1, 1]>, <49, 4, 15, 11, 2, 0, 1, [0, 0, 1, 1, 1, 1]>, <50, 5, 16, 11, 2, 0, 1, [0, 0, 1, 1, 1, 1]>, <51, 9, 20, 11, 2, 0, 1, [0, 0, 1, 1, 1, 1]>, <52, 10, 21, 11, 2, 0, 1, [0, 0, 1, 1, 1, 1]>, <53, 11, 22, 11, 2, 0, 1, [0, 0, 1, 1, 1, 1]>, <54, 12, 23, 11, 2, 0, 1, [0, 0, 1, 1, 1, 1]>, <55, 13, 24, 11, 2, 0, 1, [0, 0, 1, 1, 1, 1]>, <56, 14, 25, 11, 2, 0, 1, [0, 0, 1, 1, 1, 1]>, <57, 15, 26, 11, 2, 0, 1, [0, 0, 1, 1, 1, 1]>, <58, 16, 27, 11, 2, 0, 1, [0, 0, 1, 1, 1, 1]>, <59, 17, 28, 11, 2, 0, 1, [0, 0, 1, 1, 1, 1]>, <60, 18, 29, 11, 2, 0, 1, [0, 0, 1, 1, 1, 1]>, <61, 1, 12, 11, 3, 0, 1, [1, 1, 1, 0, 0, 1]>, <62, 2, 13, 11, 3, 0, 1, [1, 1, 1, 0, 0, 1]>, <63, 3, 14, 11, 3, 0, 1, [1, 1, 1, 0, 0, 1]>, <64, 4, 15, 11, 3, 0, 1, [1, 1, 1, 0, 0, 1]>, <65, 5, 16, 11, 3, 0, 1, [1, 1, 1, 0, 0, 1]>, <66, 9, 20, 11, 3, 0, 1, [1, 1, 1, 0, 0, 1]>, <67, 10, 21, 11, 3, 0, 1, [1, 1, 1, 0, 0, 1]>, <68, 11, 22, 11, 3, 0, 1, [1, 1, 1, 0, 0, 1]>, <69, 12, 23, 11, 3, 0, 1, [1, 1, 1, 0, 0, 1]>, <70, 13, 24, 11, 3, 0, 1, [1, 1, 1, 0, 0, 1]>, <71, 14, 25, 11, 3, 0, 1, [1, 1, 1, 0, 0, 1]>, <72, 15, 26, 11, 3, 0, 1, [1, 1, 1, 0, 0, 1]>, <73, 16, 27, 11, 3, 0, 1, [1, 1, 1, 0, 0, 1]>, <74, 17, 28, 11, 3, 0, 1, [1, 1, 1, 0, 0, 1]>, <75, 18, 29, 11, 3, 0, 1, [1, 1, 1, 0, 0, 1]>, <76, 0, 15, 15, 4, 0, 0, [1, 0, 0, 1, 1, 1]>, <77, 1, 16, 15, 4, 0, 0, [1, 0, 0, 1, 1, 1]>, <78, 2, 17, 15, 4, 0, 0, [1, 0, 0, 1, 1, 1]>, <79, 3, 18, 15, 4, 0, 0, [1, 0, 0, 1, 1, 1]>, <80, 4, 19, 15, 4, 0, 0, [1, 0, 0, 1, 1, 1]>, <81, 5, 20, 15, 4, 0, 0, [1, 0, 0, 1, 1, 1]>, <82, 6, 21, 15, 4, 0, 0, [1, 0, 0, 1, 1, 1]>, <83, 7, 22, 15, 4, 0, 0, [1, 0, 0, 1, 1, 1]>, <84, 8, 23, 15, 4, 0, 0, [1, 0, 0, 1, 1, 1]>, <85, 9, 24, 15, 4, 0, 0, [1, 0, 0, 1, 1, 1]>, <86, 10, 25, 15, 4, 0, 0, [1, 0, 0, 1, 1, 1]>, <87, 11, 26, 15, 4, 0, 0, [1, 0, 0, 1, 1, 1]>, <88, 12, 27, 15, 4, 0, 0, [1, 0, 0, 1, 1, 1]>, <89, 13, 28, 15, 4, 0, 0, [1, 0, 0, 1, 1, 1]>, <90, 14, 29, 15, 4, 0, 0, [1, 0, 0, 1, 1, 1]>, <91, 0, 13, 13, 5, 1, 0, [1, 1, 1, 1, 0, 0]>, <92, 1, 14, 13, 5, 1, 0, [1, 1, 1, 1, 0, 0]>, <93, 2, 15, 13, 5, 1, 0, [1, 1, 1, 1, 0, 0]>, <94, 3, 16, 13, 5, 1, 0, [1, 1, 1, 1, 0, 0]>, <95, 4, 17, 13, 5, 1, 0, [1, 1, 1, 1, 0, 0]>, <96, 5, 18, 13, 5, 1, 0, [1, 1, 1, 1, 0, 0]>, <97, 7, 20, 13, 5, 1, 0, [1, 1, 1, 1, 0, 0]>, <98, 8, 21, 13, 5, 1, 0, [1, 1, 1, 1, 0, 0]>, <99, 9, 22, 13, 5, 1, 0, [1, 1, 1, 1, 0, 0]>, <100, 10, 23, 13, 5, 1, 0, [1, 1, 1, 1, 0, 0]>, <101, 11, 24, 13, 5, 1, 0, [1, 1, 1, 1, 0, 0]>, <102, 12, 25, 13, 5, 1, 0, [1, 1, 1, 1, 0, 0]>, <103, 13, 26, 13, 5, 1, 0, [1, 1, 1, 1, 0, 0]>, <104, 14, 27, 13, 5, 1, 0, [1, 1, 1, 1, 0, 0]>, <105, 15, 28, 13, 5, 1, 0, [1, 1, 1, 1, 0, 0]>, <106, 16, 29, 13, 5, 1, 0, [1, 1, 1, 1, 0, 0]>, <107, 0, 14, 14, 6, 0, 0, [1, 1, 0, 0, 1, 1]>, <108, 1, 15, 14, 6, 0, 0, [1, 1, 0, 0, 1, 1]>, <109, 2, 16, 14, 6, 0, 0, [1, 1, 0, 0, 1, 1]>, <110, 3, 17, 14, 6, 0, 0, [1, 1, 0, 0, 1, 1]>, <111, 4, 18, 14, 6, 0, 0, [1, 1, 0, 0, 1, 1]>, <112, 5, 19, 14, 6, 0, 0, [1, 1, 0, 0, 1, 1]>, <113, 6, 20, 14, 6, 0, 0, [1, 1, 0, 0, 1, 1]>, <114, 7, 21, 14, 6, 0, 0, [1, 1, 0, 0, 1, 1]>, <115, 8, 22, 14, 6, 0, 0, [1, 1, 0, 0, 1, 1]>, <116, 9, 23, 14, 6, 0, 0, [1, 1, 0, 0, 1, 1]>, <117, 10, 24, 14, 6, 0, 0, [1, 1, 0, 0, 1, 1]>, <118, 11, 25, 14, 6, 0, 0, [1, 1, 0, 0, 1, 1]>, <119, 12, 26, 14, 6, 0, 0, [1, 1, 0, 0, 1, 1]>, <120, 13, 27, 14, 6, 0, 0, [1, 1, 0, 0, 1, 1]>, <121, 14, 28, 14, 6, 0, 0, [1, 1, 0, 0, 1, 1]>, <122, 15, 29, 14, 6, 0, 0, [1, 1, 0, 0, 1, 1]>, <123, 0, 14, 14, 7, 0, 1, [0, 1, 1, 1, 1, 0]>, <124, 1, 15, 14, 7, 0, 1, [0, 1, 1, 1, 1, 0]>, <125, 2, 16, 14, 7, 0, 1, [0, 1, 1, 1, 1, 0]>, <126, 3, 17, 14, 7, 0, 1, [0, 1, 1, 1, 1, 0]>, <127, 4, 18, 14, 7, 0, 1, [0, 1, 1, 1, 1, 0]>, <128, 5, 19, 14, 7, 0, 1, [0, 1, 1, 1, 1, 0]>, <129, 6, 20, 14, 7, 0, 1, [0, 1, 1, 1, 1, 0]>, <130, 7, 21, 14, 7, 0, 1, [0, 1, 1, 1, 1, 0]>, <131, 8, 22, 14, 7, 0, 1, [0, 1, 1, 1, 1, 0]>, <132, 9, 23, 14, 7, 0, 1, [0, 1, 1, 1, 1, 0]>, <133, 10, 24, 14, 7, 0, 1, [0, 1, 1, 1, 1, 0]>, <134, 11, 25, 14, 7, 0, 1, [0, 1, 1, 1, 1, 0]>, <135, 12, 26, 14, 7, 0, 1, [0, 1, 1, 1, 1, 0]>, <136, 13, 27, 14, 7, 0, 1, [0, 1, 1, 1, 1, 0]>, <137, 14, 28, 14, 7, 0, 1, [0, 1, 1, 1, 1, 0]>, <138, 15, 29, 14, 7, 0, 1, [0, 1, 1, 1, 1, 0]>, <139, 0, 12, 12, 8, 0, 0, [1, 1, 1, 0, 0, 1]>, <140, 1, 13, 12, 8, 0, 0, [1, 1, 1, 0, 0, 1]>, <141, 2, 14, 12, 8, 0, 0, [1, 1, 1, 0, 0, 1]>, <142, 3, 15, 12, 8, 0, 0, [1, 1, 1, 0, 0, 1]>, <143, 4, 16, 12, 8, 0, 0, [1, 1, 1, 0, 0, 1]>, <144, 5, 17, 12, 8, 0, 0, [1, 1, 1, 0, 0, 1]>, <145, 8, 20, 12, 8, 0, 0, [1, 1, 1, 0, 0, 1]>, <146, 9, 21, 12, 8, 0, 0, [1, 1, 1, 0, 0, 1]>, <147, 10, 22, 12, 8, 0, 0, [1, 1, 1, 0, 0, 1]>, <148, 11, 23, 12, 8, 0, 0, [1, 1, 1, 0, 0, 1]>, <149, 12, 24, 12, 8, 0, 0, [1, 1, 1, 0, 0, 1]>, <150, 13, 25, 12, 8, 0, 0, [1, 1, 1, 0, 0, 1]>, <151, 14, 26, 12, 8, 0, 0, [1, 1, 1, 0, 0, 1]>, <152, 15, 27, 12, 8, 0, 0, [1, 1, 1, 0, 0, 1]>, <153, 16, 28, 12, 8, 0, 0, [1, 1, 1, 0, 0, 1]>, <154, 17, 29, 12, 8, 0, 0, [1, 1, 1, 0, 0, 1]>, <155, 2, 12, 10, 9, 0, 0, [0, 1, 1, 1, 1, 0]>, <156, 3, 13, 10, 9, 0, 0, [0, 1, 1, 1, 1, 0]>, <157, 4, 14, 10, 9, 0, 0, [0, 1, 1, 1, 1, 0]>, <158, 5, 15, 10, 9, 0, 0, [0, 1, 1, 1, 1, 0]>, <159, 10, 20, 10, 9, 0, 0, [0, 1, 1, 1, 1, 0]>, <160, 11, 21, 10, 9, 0, 0, [0, 1, 1, 1, 1, 0]>, <161, 12, 22, 10, 9, 0, 0, [0, 1, 1, 1, 1, 0]>, <162, 14, 24, 10, 9, 0, 0, [0, 1, 1, 1, 1, 0]>, <163, 15, 25, 10, 9, 0, 0, [0, 1, 1, 1, 1, 0]>, <164, 16, 26, 10, 9, 0, 0, [0, 1, 1, 1, 1, 0]>, <165, 17, 27, 10, 9, 0, 0, [0, 1, 1, 1, 1, 0]>, <166, 18, 28, 10, 9, 0, 0, [0, 1, 1, 1, 1, 0]>, <167, 19, 29, 10, 9, 0, 0, [0, 1, 1, 1, 1, 0]>, <168, 0, 15, 15, 10, 0, 0, [1, 0, 0, 1, 1, 1]>, <169, 1, 16, 15, 10, 0, 0, [1, 0, 0, 1, 1, 1]>, <170, 2, 17, 15, 10, 0, 0, [1, 0, 0, 1, 1, 1]>, <171, 3, 18, 15, 10, 0, 0, [1, 0, 0, 1, 1, 1]>, <172, 4, 19, 15, 10, 0, 0, [1, 0, 0, 1, 1, 1]>, <173, 5, 20, 15, 10, 0, 0, [1, 0, 0, 1, 1, 1]>, <174, 6, 21, 15, 10, 0, 0, [1, 0, 0, 1, 1, 1]>, <175, 7, 22, 15, 10, 0, 0, [1, 0, 0, 1, 1, 1]>, <176, 8, 23, 15, 10, 0, 0, [1, 0, 0, 1, 1, 1]>, <177, 9, 24, 15, 10, 0, 0, [1, 0, 0, 1, 1, 1]>, <178, 10, 25, 15, 10, 0, 0, [1, 0, 0, 1, 1, 1]>, <179, 11, 26, 15, 10, 0, 0, [1, 0, 0, 1, 1, 1]>, <180, 12, 27, 15, 10, 0, 0, [1, 0, 0, 1, 1, 1]>, <181, 13, 28, 15, 10, 0, 0, [1, 0, 0, 1, 1, 1]>, <182, 14, 29, 15, 10, 0, 0, [1, 0, 0, 1, 1, 1]>, <183, 0, 12, 12, 11, 0, 1, [0, 1, 1, 1, 1, 0]>, <184, 1, 13, 12, 11, 0, 1, [0, 1, 1, 1, 1, 0]>, <185, 2, 14, 12, 11, 0, 1, [0, 1, 1, 1, 1, 0]>, <186, 3, 15, 12, 11, 0, 1, [0, 1, 1, 1, 1, 0]>, <187, 4, 16, 12, 11, 0, 1, [0, 1, 1, 1, 1, 0]>, <188, 5, 17, 12, 11, 0, 1, [0, 1, 1, 1, 1, 0]>, <189, 8, 20, 12, 11, 0, 1, [0, 1, 1, 1, 1, 0]>, <190, 9, 21, 12, 11, 0, 1, [0, 1, 1, 1, 1, 0]>, <191, 10, 22, 12, 11, 0, 1, [0, 1, 1, 1, 1, 0]>, <192, 11, 23, 12, 11, 0, 1, [0, 1, 1, 1, 1, 0]>, <193, 12, 24, 12, 11, 0, 1, [0, 1, 1, 1, 1, 0]>, <194, 13, 25, 12, 11, 0, 1, [0, 1, 1, 1, 1, 0]>, <195, 14, 26, 12, 11, 0, 1, [0, 1, 1, 1, 1, 0]>, <196, 15, 27, 12, 11, 0, 1, [0, 1, 1, 1, 1, 0]>, <197, 16, 28, 12, 11, 0, 1, [0, 1, 1, 1, 1, 0]>, <198, 17, 29, 12, 11, 0, 1, [0, 1, 1, 1, 1, 0]>, <199, 0, 15, 15, 12, 0, 1, [1, 1, 1, 0, 0, 1]>, <200, 1, 16, 15, 12, 0, 1, [1, 1, 1, 0, 0, 1]>, <201, 2, 17, 15, 12, 0, 1, [1, 1, 1, 0, 0, 1]>, <202, 3, 18, 15, 12, 0, 1, [1, 1, 1, 0, 0, 1]>, <203, 4, 19, 15, 12, 0, 1, [1, 1, 1, 0, 0, 1]>, <204, 5, 20, 15, 12, 0, 1, [1, 1, 1, 0, 0, 1]>, <205, 6, 21, 15, 12, 0, 1, [1, 1, 1, 0, 0, 1]>, <206, 7, 22, 15, 12, 0, 1, [1, 1, 1, 0, 0, 1]>, <207, 8, 23, 15, 12, 0, 1, [1, 1, 1, 0, 0, 1]>, <208, 9, 24, 15, 12, 0, 1, [1, 1, 1, 0, 0, 1]>, <209, 10, 25, 15, 12, 0, 1, [1, 1, 1, 0, 0, 1]>, <210, 11, 26, 15, 12, 0, 1, [1, 1, 1, 0, 0, 1]>, <211, 12, 27, 15, 12, 0, 1, [1, 1, 1, 0, 0, 1]>, <212, 13, 28, 15, 12, 0, 1, [1, 1, 1, 0, 0, 1]>, <213, 14, 29, 15, 12, 0, 1, [1, 1, 1, 0, 0, 1]>, <214, 0, 13, 13, 13, 0, 0, [0, 1, 1, 1, 1, 0]>, <215, 1, 14, 13, 13, 0, 0, [0, 1, 1, 1, 1, 0]>, <216, 2, 15, 13, 13, 0, 0, [0, 1, 1, 1, 1, 0]>, <217, 3, 16, 13, 13, 0, 0, [0, 1, 1, 1, 1, 0]>, <218, 4, 17, 13, 13, 0, 0, [0, 1, 1, 1, 1, 0]>, <219, 5, 18, 13, 13, 0, 0, [0, 1, 1, 1, 1, 0]>, <220, 7, 20, 13, 13, 0, 0, [0, 1, 1, 1, 1, 0]>, <221, 8, 21, 13, 13, 0, 0, [0, 1, 1, 1, 1, 0]>, <222, 9, 22, 13, 13, 0, 0, [0, 1, 1, 1, 1, 0]>, <223, 10, 23, 13, 13, 0, 0, [0, 1, 1, 1, 1, 0]>, <224, 11, 24, 13, 13, 0, 0, [0, 1, 1, 1, 1, 0]>, <225, 12, 25, 13, 13, 0, 0, [0, 1, 1, 1, 1, 0]>, <226, 13, 26, 13, 13, 0, 0, [0, 1, 1, 1, 1, 0]>, <227, 14, 27, 13, 13, 0, 0, [0, 1, 1, 1, 1, 0]>, <228, 15, 28, 13, 13, 0, 0, [0, 1, 1, 1, 1, 0]>, <229, 16, 29, 13, 13, 0, 0, [0, 1, 1, 1, 1, 0]>, <230, 1, 12, 11, 14, 0, 0, [1, 1, 0, 0, 1, 1]>, <231, 2, 13, 11, 14, 0, 0, [1, 1, 0, 0, 1, 1]>, <232, 3, 14, 11, 14, 0, 0, [1, 1, 0, 0, 1, 1]>, <233, 4, 15, 11, 14, 0, 0, [1, 1, 0, 0, 1, 1]>, <234, 5, 16, 11, 14, 0, 0, [1, 1, 0, 0, 1, 1]>, <235, 9, 20, 11, 14, 0, 0, [1, 1, 0, 0, 1, 1]>, <236, 10, 21, 11, 14, 0, 0, [1, 1, 0, 0, 1, 1]>, <237, 11, 22, 11, 14, 0, 0, [1, 1, 0, 0, 1, 1]>, <238, 12, 23, 11, 14, 0, 0, [1, 1, 0, 0, 1, 1]>, <239, 13, 24, 11, 14, 0, 0, [1, 1, 0, 0, 1, 1]>, <240, 14, 25, 11, 14, 0, 0, [1, 1, 0, 0, 1, 1]>, <241, 15, 26, 11, 14, 0, 0, [1, 1, 0, 0, 1, 1]>, <242, 16, 27, 11, 14, 0, 0, [1, 1, 0, 0, 1, 1]>, <243, 17, 28, 11, 14, 0, 0, [1, 1, 0, 0, 1, 1]>, <244, 18, 29, 11, 14, 0, 0, [1, 1, 0, 0, 1, 1]>};
